5 5
1 56 3 32 2 11 4 21 0 26
4 14 1 79 3 14 2 76 0 3
3 57 4 7 2 39 0 57 1 65
3 25 2 31 4 86 1 10 0 82
4 77 2 72 3 9 0 79 1 8
-1
0 1 3 5
0 1 2 4 5
0 3 4 5
0 1 2 4 5
0 1 2 4 5
-2
63 114 152
19 130 186 206
153 163 267
29 80 197 364
84 225 283 298

375 10
13 19 23 4 9
0 18 6 14 24
16 12 21 2 8
15 10 1 22 7
20 11 17 5 3
